LAMMPS (3 Mar 2020)
units                   metal
boundary                p p p
atom_style              charge

#simulation box definition
read_data              /share/home/yszhang/PBS/myExample/Cr2O3-FeCr/demo/min/Cr2O3-FeCr.data
Reading data file ...
  orthogonal box = (0 0 0) to (22.6439 22.6439 120.773)
  2 by 2 by 8 MPI processor grid
  reading atoms ...
  5660 atoms
  read_data CPU = 0.00851202 secs

#potential
kspace_style            pppm 1.0e-4
pair_style              hybrid/overlay coul/long 10.0 buck 10.0 buck 10.0 reax/c NULL
pair_coeff              * * coul/long
pair_coeff              1 3 buck 1 2362.905 0.270628 0.0
pair_coeff              3 3 buck 2 91.55955 0.547148 32.32
# pair_coeff              * * eam/alloy /share/home/yszhang/lammps/lammps-install/potentials/FeCr_d.eam.alloy Cr Fe NULL Cr
# pair_coeff              * * tersoff/zbl /root/lammps/lammps-3Mar20/potentials/Fe-O.tersoff.zbl NULL Fe O NULL
pair_coeff              * * reax/c /share/home/yszhang/lammps/lammps-install/potentials/CrOFeSCH.reax Cr Fe O Cr
WARNING: Changed valency_val to valency_boc for X (../reaxc_ffield.cpp:315)

#setting
neighbor                5.0 bin
timestep                0.001
#run                     0
#variable                E equal pe #定义变量E为系统总势能
#print "The system energy now is $E"

min_style               sd

thermo_style            custom step temp pe ke
thermo                  10

#compute                 pe all pe/atom
#compute                 ke all ke/atom

fix             	1 all qeq/reax 1 0.0 10.0 1.0e-6 reax/c

dump                    1 all custom 10000 dump_min.lammpstrj id type x y z
minimize                1.0e-12 1.0e-12 1000000 1000000
WARNING: Using 'neigh_modify every 1 delay 0 check yes' setting during minimization (../min.cpp:190)
PPPM initialization ...
WARNING: System is not charge neutral, net charge = -75 (../kspace.cpp:313)
  using 12-bit tables for long-range coulomb (../kspace.cpp:332)
  G vector (1/distance) = 0.303825
  grid = 24 24 75
  stencil order = 5
  estimated absolute RMS force accuracy = 0.00124696
  estimated relative force accuracy = 8.65964e-05
  using double precision FFTW3
  3d grid and FFT values/proc = 9522 1728
Neighbor list info ...
  update every 1 steps, delay 0 steps, check yes
  max neighbors/atom: 2000, page size: 100000
  master list distance cutoff = 15
  ghost atom cutoff = 15
  binsize = 7.5, bins = 4 4 17
  5 neighbor lists, perpetual/occasional/extra = 5 0 0
  (1) pair coul/long, perpetual
      attributes: half, newton on
      pair build: half/bin/atomonly/newton
      stencil: half/bin/3d/newton
      bin: standard
  (2) pair buck, perpetual, skip from (1)
      attributes: half, newton on
      pair build: skip
      stencil: none
      bin: none
  (3) pair buck, perpetual, skip from (1)
      attributes: half, newton on
      pair build: skip
      stencil: none
      bin: none
  (4) pair reax/c, perpetual
      attributes: half, newton off, ghost
      pair build: half/bin/newtoff/ghost
      stencil: half/ghost/bin/3d/newtoff
      bin: standard
  (5) fix qeq/reax, perpetual, copy from (4)
      attributes: half, newton off, ghost
      pair build: copy
      stencil: none
      bin: none
Setting up sd style minimization ...
  Unit style    : metal
  Current step  : 0
Per MPI rank memory allocation (min/avg/max) = 168.8 | 176.9 | 181.8 Mbytes
Step Temp PotEng KinEng 
       0            0   -512857.36            0 
      10            0   -600388.71            0 
      20            0   -623435.94            0 
      30            0   -625973.67            0 
      40            0   -626835.61            0 
      50            0   -627456.49            0 
      60            0    -628119.9            0 
      70            0   -628691.33            0 
      80            0   -629125.82            0 
      90            0   -629477.03            0 
     100            0   -629918.36            0 
     110            0   -630354.06            0 
     120            0   -630909.61            0 
     130            0   -631481.87            0 
     140            0   -632202.23            0 
     150            0   -632972.07            0 
     160            0   -633786.88            0 
     170            0   -634509.01            0 
     180            0   -635235.55            0 
     190            0    -635971.5            0 
     200            0   -636718.26            0 
     210            0   -637487.64            0 
     220            0   -638457.37            0 
     230            0   -639361.46            0 
     240            0   -640327.92            0 
     250            0   -641330.35            0 
     260            0    -642430.3            0 
     270            0    -643239.4            0 
     280            0   -644079.52            0 
     290            0   -644932.13            0 
     300            0   -645772.34            0 
     310            0    -646578.3            0 
     320            0    -647375.4            0 
     330            0   -648156.76            0 
     340            0   -648934.92            0 
     350            0   -649698.94            0 
     360            0   -650436.99            0 
     370            0   -651150.73            0 
     380            0   -651857.03            0 
     390            0   -652564.63            0 
     400            0   -653247.87            0 
     410            0   -653878.16            0 
     420            0   -654458.54            0 
     430            0    -654993.8            0 
     440            0   -655512.92            0 
     450            0   -656036.16            0 
     460            0   -656571.52            0 
     470            0   -657134.94            0 
     480            0   -657559.48            0 
     490            0   -658131.86            0 
     500            0   -658567.24            0 
     510            0   -659137.27            0 
     520            0   -659619.62            0 
     530            0   -660152.76            0 
     540            0   -660582.86            0 
     550            0   -661054.92            0 
     560            0   -661532.12            0 
     570            0   -661972.01            0 
     580            0   -662569.69            0 
     590            0      -662886            0 
     600            0    -663491.6            0 
     610            0   -663786.29            0 
     620            0   -663881.46            0 
     630            0   -664142.08            0 
     640            0   -664501.96            0 
     650            0   -664701.07            0 
     660            0   -665052.75            0 
     670            0   -665204.15            0 
     680            0   -665380.89            0 
     690            0   -665580.54            0 
     700            0   -665609.32            0 
     710            0   -665714.95            0 
     720            0   -666019.68            0 
     730            0   -666089.26            0 
     740            0   -666215.97            0 
     750            0   -666365.61            0 
     760            0   -666430.81            0 
     770            0   -666498.44            0 
     780            0   -666716.26            0 
     790            0   -666813.89            0 
     800            0    -666814.9            0 
     810            0   -666893.61            0 
     820            0    -666899.4            0 
     830            0    -667069.7            0 
     840            0   -667193.52            0 
     850            0   -667287.46            0 
     860            0   -667489.74            0 
     870            0    -667653.7            0 
     880            0   -667750.98            0 
     890            0   -667834.52            0 
     900            0   -667992.33            0 
     910            0   -668078.32            0 
     920            0   -668185.42            0 
     930            0   -668347.71            0 
     940            0   -668459.34            0 
     950            0   -668584.61            0 
     960            0   -668702.81            0 
     970            0   -668800.21            0 
     980            0    -668985.5            0 
     990            0   -669107.95            0 
    1000            0   -669228.18            0 
    1010            0   -669324.76            0 
    1020            0   -669359.38            0 
    1030            0    -669458.9            0 
    1040            0   -669574.19            0 
    1050            0   -669613.45            0 
    1060            0   -669743.89            0 
    1070            0   -669841.05            0 
    1080            0   -669937.03            0 
    1090            0   -670015.77            0 
    1100            0   -670072.37            0 
    1110            0   -670102.41            0 
    1120            0   -670131.76            0 
    1130            0   -670162.98            0 
    1140            0   -670193.64            0 
    1150            0   -670223.94            0 
    1160            0   -670254.16            0 
    1170            0   -670376.87            0 
    1180            0   -670489.02            0 
    1190            0    -670543.9            0 
    1200            0   -670572.23            0 
    1210            0   -670618.76            0 
    1220            0   -670727.03            0 
    1230            0   -670813.67            0 
    1240            0   -670883.11            0 
    1250            0   -671006.33            0 
    1260            0   -671059.89            0 
    1270            0   -671112.85            0 
    1280            0   -671222.14            0 
    1290            0   -671290.29            0 
    1300            0   -671358.52            0 
    1310            0   -671434.91            0 
    1320            0    -671494.3            0 
    1330            0   -671548.89            0 
    1340            0   -671646.11            0 
    1350            0   -671691.46            0 
    1360            0   -671712.02            0 
    1370            0   -671767.12            0 
    1380            0    -671795.4            0 
    1390            0   -671813.21            0 
    1400            0   -671830.18            0 
    1410            0   -671848.76            0 
    1420            0   -671866.86            0 
    1430            0   -671884.57            0 
    1440            0   -671902.22            0 
    1450            0   -671919.39            0 
    1460            0   -671936.32            0 
    1470            0   -671953.07            0 
    1480            0    -671969.4            0 
    1490            0   -671985.62            0 
    1500            0   -672001.28            0 
    1510            0   -672016.67            0 
    1520            0   -672089.84            0 
    1530            0   -672142.85            0 
    1540            0   -672165.69            0 
    1550            0   -672205.98            0 
    1560            0    -672229.1            0 
    1570            0   -672290.02            0 
    1580            0   -672337.09            0 
    1590            0   -672359.19            0 
    1600            0   -672369.85            0 
    1610            0   -672381.52            0 
    1620            0   -672435.84            0 
    1630            0   -672452.48            0 
    1640            0   -672467.27            0 
    1650            0   -672521.43            0 
    1660            0    -672536.8            0 
    1670            0    -672542.6            0 
    1680            0   -672585.51            0 
    1690            0   -672616.16            0 
    1700            0   -672675.15            0 
    1710            0   -672710.74            0 
    1720            0   -672731.58            0 
    1730            0   -672768.36            0 
    1740            0      -672794            0 
    1750            0   -672819.29            0 
    1760            0   -672845.81            0 
    1770            0   -672858.65            0 
    1780            0   -672882.21            0 
    1790            0   -672920.55            0 
    1800            0   -672975.46            0 
    1810            0   -673002.82            0 
    1820            0    -673024.5            0 
    1830            0   -673061.13            0 
    1840            0   -673103.84            0 
    1850            0   -673134.36            0 
    1860            0   -673158.19            0 
    1870            0   -673188.77            0 
    1880            0      -673230            0 
    1890            0   -673280.66            0 
    1900            0    -673310.4            0 
    1910            0    -673330.6            0 
    1920            0   -673382.85            0 
    1930            0   -673396.86            0 
    1940            0   -673429.61            0 
    1950            0   -673462.48            0 
    1960            0   -673486.85            0 
    1970            0   -673546.69            0 
    1980            0    -673586.7            0 
    1990            0   -673614.74            0 
    2000            0   -673655.71            0 
    2010            0    -673699.6            0 
    2020            0   -673742.09            0 
    2030            0   -673770.42            0 
    2040            0   -673783.55            0 
    2050            0   -673827.46            0 
    2060            0   -673855.45            0 
    2070            0   -673873.69            0 
    2080            0   -673892.87            0 
    2090            0    -673929.9            0 
    2100            0   -673938.72            0 
    2110            0   -673945.84            0 
    2120            0   -673990.99            0 
    2130            0   -674042.59            0 
    2140            0   -674084.51            0 
    2150            0   -674099.74            0 
    2160            0   -674114.66            0 
    2170            0   -674128.93            0 
    2180            0   -674136.12            0 
    2190            0   -674146.46            0 
    2200            0   -674161.03            0 
    2210            0   -674188.25            0 
    2220            0   -674202.71            0 
    2230            0   -674237.85            0 
    2240            0   -674279.31            0 
    2250            0   -674322.47            0 
    2260            0    -674358.5            0 
    2270            0   -674423.95            0 
    2280            0    -674464.2            0 
    2290            0   -674505.81            0 
    2300            0   -674546.51            0 
    2310            0   -674580.85            0 
    2320            0    -674613.5            0 
    2330            0   -674626.66            0 
    2340            0   -674656.02            0 
    2350            0   -674671.25            0 
    2360            0   -674708.67            0 
    2370            0   -674737.59            0 
    2380            0   -674766.48            0 
    2390            0    -674798.8            0 
    2400            0   -674827.18            0 
    2410            0   -674852.25            0 
    2420            0   -674879.97            0 
    2430            0   -674893.61            0 
    2440            0   -674912.94            0 
    2450            0   -674964.14            0 
    2460            0   -674989.84            0 
    2470            0   -675024.77            0 
    2480            0   -675029.46            0 
    2490            0   -675030.03            0 
    2500            0   -675030.04            0 
    2505            0   -675030.03            0 
Loop time of 1846.97 on 32 procs for 2505 steps with 5660 atoms

97.8% CPU use with 32 MPI tasks x no OpenMP threads

Minimization stats:
  Stopping criterion = energy tolerance
  Energy initial, next-to-last, final = 
        -512857.359665     -675030.036702     -675030.031061
  Force two-norm initial, final = 10257.6 258.663
  Force max component initial, final = 340.942 90.6305
  Final line search alpha, max atom move = 0.000275845 0.025
  Iterations, force evaluations = 2505 11831

MPI task timing breakdown:
Section |  min time  |  avg time  |  max time  |%varavg| %total
---------------------------------------------------------------
Pair    | 1299.8     | 1485.8     | 1690.3     | 252.1 | 80.45
Kspace  | 7.9936     | 212.48     | 398.52     | 666.8 | 11.50
Neigh   | 0.12055    | 0.13153    | 0.14937    |   2.6 |  0.01
Comm    | 2.2537     | 2.3735     | 2.4642     |   4.6 |  0.13
Output  | 0.0066929  | 0.0079658  | 0.041677   |   6.8 |  0.00
Modify  | 145.55     | 145.63     | 145.7      |   0.3 |  7.88
Other   |            | 0.4914     |            |       |  0.03

Nlocal:    176.875 ave 204 max 150 min
Histogram: 1 4 3 1 8 6 2 5 1 1
Nghost:    6841.16 ave 7391 max 6542 min
Histogram: 11 1 7 1 4 0 2 2 0 4
Neighs:    114727 ave 141554 max 91065 min
Histogram: 4 3 1 6 2 4 4 5 2 1

Total # of neighbors = 3671255
Ave neighs/atom = 648.632
Neighbor list builds = 2
Dangerous builds = 0
undump			1
#print "The system energy now is $E"

#dump                    2 all custom 100 dump.lammpstrj id type x y z
#velocity all create 273.15 4928459 dist gaussian
#fix                     2 all nvt temp 273.15 273.15 0.1
#run                     10000000

Please see the log.cite file for references relevant to this simulation

Total wall time: 0:30:47
